120
150
43
44
46
47
47
44
47
46
58
45
47
47
53
46
56
40
57
40
57
43
50
51
46
53
51
42
57
54
49
47
45
53
52
40
40
40
56
47
47
57
52
46
53
59
44
47
43
50
57
56
47
47
53
51
46
47
57
46
40
59
53
53
44
40
40
40
56
50
44
50
47
53
47
43
60
54
43
53
44
44
40
54
52
44
50
59
41
56
47
47
40
41
40
54
46
50
40
59
52
57
41
60
57
40
52
60
43
47
43
50
58
46
46
55
48
47
46
53
51
57
